Route 1: 0 71 35 39 11 80 8 98 99 43 87 22 0
Route 2: 0 36 50 73 5 46 6 27 24 28 62 95 7 0
Route 3: 0 23 77 49 4 86 79 69 0
Route 4: 0 18 1 91 65 88 12 33 34 32 83 21 0
Route 5: 0 44 74 60 16 15 97 84 0
Route 6: 0 67 37 93 66 82 94 30 54 57 0
Route 7: 0 20 45 90 76 75 48 63 59 0
Route 8: 0 42 19 52 10 14 56 92 9 29 85 31 0
Route 9: 0 41 47 3 51 40 26 61 100 68 0
Route 10: 0 64 25 58 78 81 96 72 70 13 0
Route 11: 0 53 38 89 2 17 55 0
